p wcnf 193 96 97 
1 -104 -95 0 
1 8 30 0 
1 9 -189 0 
1 -12 -79 0 
1 31 -106 0 
1 63 135 0 
1 5 104 0 
1 -169 -5 0 
1 134 -44 0 
1 184 -150 0 
1 -70 -2 0 
1 -124 169 0 
1 -130 -92 0 
1 140 15 0 
1 -111 40 0 
1 37 -160 0 
1 -12 161 0 
1 -179 68 0 
1 -132 -23 0 
1 30 72 0 
1 -107 99 0 
1 -10 -150 0 
1 -48 -45 0 
1 83 47 0 
1 89 -182 0 
1 -50 -46 0 
1 -163 50 0 
1 -62 2 0 
1 193 -137 0 
1 57 189 0 
1 -78 169 0 
1 -28 116 0 
1 -107 -48 0 
1 -192 -37 0 
1 170 -31 0 
1 -144 67 0 
1 115 138 0 
1 111 12 0 
1 95 -32 0 
1 44 46 0 
1 -91 -79 0 
1 90 126 0 
1 135 -90 0 
1 -142 -66 0 
1 -14 -124 0 
1 159 191 0 
1 14 164 0 
1 169 16 0 
1 46 -76 0 
1 -110 151 0 
1 32 -59 0 
1 -130 137 0 
1 130 144 0 
1 55 -131 0 
1 -6 122 0 
1 159 127 0 
1 87 -76 0 
1 -170 -120 0 
1 -11 -92 0 
1 -175 78 0 
1 -10 -3 0 
1 23 -142 0 
1 113 -30 0 
1 -164 -139 0 
1 64 50 0 
1 -35 20 0 
1 -137 -187 0 
1 -129 -87 0 
1 -2 -149 0 
1 -67 -1 0 
1 108 -132 0 
1 105 -157 0 
1 -91 116 0 
1 50 43 0 
1 154 -172 0 
1 53 -85 0 
1 127 66 0 
1 -80 -47 0 
1 -91 -17 0 
1 69 153 0 
1 29 117 0 
1 -39 101 0 
1 155 -28 0 
1 113 158 0 
1 -104 -51 0 
1 169 13 0 
1 -127 -72 0 
1 48 116 0 
1 25 31 0 
1 -126 193 0 
1 183 -64 0 
1 21 84 0 
1 -34 190 0 
1 -58 -8 0 
1 -69 -39 0 
1 -83 185 0 
